ilp_joint/output/physical change_ilp.lp
Maximize
 
Subject To
 constraint2_1290: <= 1
 constraint2_1291: <= 1
 constraint2_1292: <= 1
 constraint2_1293: <= 1
 constraint2_860: <= 1
 constraint2_861: <= 1
 constraint2_862: <= 1
 constraint2_863: <= 1
Bounds
End
