ilp_joint/output/physical change_ilp.mps
NAME physical change_srl_ilp
* Max problem is converted into Min one
ROWS
 N  OBJ
 L  constraint2_1290
 L  constraint2_1291
 L  constraint2_1292
 L  constraint2_1293
 L  constraint2_860
 L  constraint2_861
 L  constraint2_862
 L  constraint2_863
COLUMNS
RHS
    RHS1      constraint2_1290  1
    RHS1      constraint2_1291  1
    RHS1      constraint2_1292  1
    RHS1      constraint2_1293  1
    RHS1      constraint2_860  1
    RHS1      constraint2_861  1
    RHS1      constraint2_862  1
    RHS1      constraint2_863  1
BOUNDS
ENDATA
