ilp_joint/output/physical change_ilp.sol
# Solution for model physical change_srl_ilp
# Objective value = 8.6430576050788166e-01
Z_385_0_0 0
Z_385_0_1 0
Z_385_0_2 0
Z_385_0_3 0
Z_385_0_4 1
